JOBS = 1..9;
MACHINES = 1..3;
SPEED = 1;
time = array3d(JOBS,MACHINES,1..SPEED,[92,72,48,71,10,14,42,15,51,79,17,62,11,28,71,83,36,27,13,73,97,65,36,84,84,27,56]);
energy = array3d(JOBS,MACHINES,1..SPEED,[39,48,61,49,90,86,65,86,60,45,84,53,89,75,49,43,69,76,87,48,37,52,69,43,43,76,57]);
precedence = array2d(JOBS,MACHINES,[2,0,1,0,2,1,1,2,0,0,1,2,1,0,2,0,2,1,2,1,0,0,2,1,0,1,2]);
ME = 1;
TE = 143;
st_old = array2d(JOBS,MACHINES,[448,174,342,160,288,231,231,273,0,273,456,473,149,0,160,352,473,446,435,362,245,0,298,65,65,246,390]);
SpeedScaling = array2d(JOBS,MACHINES,[1,1,1,1,1,1,1,1,1,1,1,1,1,1,1,1,1,1,1,1,1,1,1,1,1,1,1]);
